c read Graph
c width = 132
c time = 3779 ms
c width = 131
c time = 311841 ms
c width = 130
c time = 784666 ms
c width = 130
c time = 4072153 ms
s td 121 131 246
b 1 28 93 121 138 146
b 2 2 10 11 13 15 16 18 19 20 21 22 24 25 28 29 33 38 39 40 41 42 43 44 46 48 50 51 54 56 58 60 61 64 67 68 73 75 76 77 78 79 81 86 87 90 91 93 94 95 96 97 98 99 100 109 113 116 118 121 125 126 128 131 133 135 137 138 139 140 141 142 147 154 155 157 163 164 165 166 167 168 172 176 180 183 189 190 191 193 196 201 202 204 205 206 213 217 218 219 222 225 229 230 231 234 236 237 238 241 244
b 3 2 10 11 13 15 16 18 19 20 21 22 24 25 29 38 39 41 42 48 50 51 54 56 61 64 67 68 73 76 77 78 79 81 87 91 93 94 95 96 98 100 109 113 116 118 121 125 126 128 131 133 135 137 138 139 140 141 142 147 154 155 157 163 164 165 166 167 168 172 176 180 183 189 190 191 193 196 201 202 204 205 206 213 217 218 219 222 225 229 230 231 234 236 237 238 241 244
b 4 2 10 11 13 15 16 18 19 20 21 22 24 25 29 38 39 41 42 48 50 51 54 56 61 64 67 68 73 76 77 78 79 81 87 91 93 94 95 96 98 100 101 113 116 118 125 126 131 133 135 138 139 140 142 154 155 157 163 164 166 167 172 176 180 183 189 190 191 193 196 202 204 205 206 213 217 218 219 222 225 229 230 237 238 241 244
b 5 13 56 76 77 87 93 101 118 129 133 142 172
b 6 10 15 18 19 20 21 22 29 50 51 54 61 64 77 78 81 91 94 96 101 113 126 135 142 166 172 189 190 191 196 202 213 217 222 225 229 230 238 242 244
b 7 10 18 19 21 50 61 64 81 126 189 190 207 217 222 230 242 244
b 8 18 35 50 61 81 190 207 222 230 242
b 9 15 22 29 54 77 78 88 91 94 96 101 113 135 142 166 172 191 196 202 213 225 229 238 242
b 10 15 29 54 88 113 142 151 166 172 191 202 213 238
b 11 22 77 78 88 102 135 225 242
b 12 2 11 15 16 18 20 24 25 29 38 41 42 48 50 54 61 67 68 73 79 93 95 98 100 101 108 116 118 125 133 138 139 140 154 155 157 164 167 176 180 183 189 190 193 202 204 205 206 218 219 229 230 237 241 244
b 13 2 16 24 25 38 73 79 101 108 125 140 177 183 190 219 244
b 14 2 24 73 79 108 115 140 177 183
b 15 20 30 50 67 68 93 101 108 133 138 139 157 183 189 241 244
b 16 30 50 67 68 93 133 136 138 189 244
b 17 11 15 18 29 42 48 54 55 67 95 98 100 108 118 140 154 167 176 193 202 204 205 206 218 230 237 244
b 18 48 54 55 98 120 140 154 204 206 237
b 19 15 18 29 42 55 95 98 100 108 171 202 205 244
b 20 2 10 11 12 13 15 16 18 19 20 21 22 24 25 28 29 33 38 39 40 41 42 43 44 46 48 50 51 54 56 58 60 61 64 67 68 73 75 76 77 78 79 81 86 87 90 91 93 94 95 96 97 98 99 100 109 113 116 118 121 125 126 128 131 133 135 137 138 139 140 141 142 147 154 155 157 163 164 165 166 167 168 172 176 180 183 189 190 191 193 196 201 202 204 205 206 213 217 218 219 222 225 229 230 231 234 236 237 238 241 244
b 21 2 11 12 15 18 19 28 33 40 43 44 46 50 52 58 60 67 68 75 76 78 79 81 86 90 93 96 97 98 99 109 116 121 128 131 135 137 141 142 147 155 157 163 165 168 172 180 201 202 206 217 219 225 229 230 231 234 238 241
b 22 2 11 12 18 19 33 40 43 46 52 58 60 67 68 76 78 86 90 93 96 98 99 109 116 128 131 137 142 155 173 206 230 231 234 241
b 23 19 58 86 109 122 128 173 206
b 24 18 40 46 52 90 98 116 119 131 173
b 25 2 11 12 33 58 60 67 68 76 93 96 137 149 155 173 231 241
b 26 11 68 93 96 149 155 169 231 241
b 27 28 44 50 52 79 81 97 121 135 141 142 147 157 163 165 168 172 199 201 202 219 225 231 238
b 28 28 44 50 52 85 97 121 141 142 157 163 165 168 199 219 231
b 29 85 97 121 142 157 163 199 223 231
b 30 2 10 11 12 13 15 16 18 19 20 21 22 24 25 28 29 33 38 39 40 41 42 43 44 46 48 50 51 54 56 58 60 61 64 67 68 73 75 76 77 78 79 81 86 87 90 91 93 94 95 96 97 98 99 100 109 113 116 118 121 125 126 128 131 133 135 137 138 139 140 141 147 154 155 157 163 164 165 166 167 168 172 176 180 183 189 190 191 193 196 201 202 204 205 206 213 217 218 219 222 225 228 229 230 231 234 236 237 238 241 244
b 31 2 10 11 12 13 15 16 18 19 20 21 22 24 25 28 29 33 38 39 40 41 42 43 44 46 48 50 51 54 56 58 60 61 64 68 73 75 76 77 78 79 81 86 87 90 91 93 94 95 96 97 98 99 100 109 113 116 118 121 125 126 128 130 131 133 135 137 138 139 140 141 147 154 155 157 162 163 164 165 166 167 168 172 174 176 180 181 183 189 190 191 193 194 195 196 197 201 202 204 205 206 213 217 218 219 222 225 228 229 230 231 234 236 237 238 241 244
b 32 2 10 11 12 13 15 16 18 19 20 21 22 24 25 28 29 33 38 39 40 41 42 43 44 46 48 50 51 54 56 58 60 61 64 68 73 75 76 77 78 79 80 81 86 87 90 91 93 94 95 96 97 98 99 100 103 107 109 110 113 116 118 121 125 126 128 130 131 133 135 137 138 139 140 141 147 154 155 157 162 163 164 165 166 167 168 172 174 176 180 181 183 189 190 191 193 194 195 196 197 201 202 204 205 206 213 217 218 219 222 225 228 229 230 231 234 236 237 238 241 244
b 33 2 10 11 12 13 15 16 18 19 20 21 22 24 25 28 29 33 38 39 40 41 42 43 44 46 48 50 51 54 56 58 60 61 64 68 71 73 75 76 77 78 79 80 81 86 87 90 91 93 94 95 96 97 98 99 100 103 107 109 110 113 116 118 121 125 126 128 130 131 133 135 137 138 139 140 141 147 154 155 157 162 163 164 165 166 167 168 172 174 176 180 181 183 189 190 191 193 194 195 196 197 201 202 204 205 206 213 217 218 219 222 225 228 229 230 231 234 236 237 238 241 244
b 34 2 8 10 11 12 13 14 15 16 18 19 20 21 22 24 25 28 29 33 38 39 40 41 42 43 44 46 48 50 51 54 56 58 60 61 64 66 68 71 73 75 76 77 78 79 80 81 86 87 90 91 93 94 95 96 97 98 99 100 103 107 109 110 113 116 118 121 125 126 128 130 131 133 135 137 138 139 140 141 147 154 155 157 162 163 164 165 166 167 168 172 174 176 180 181 183 189 190 191 193 194 195 196 197 201 202 204 205 206 213 217 218 219 222 225 228 229 230 231 234 236 237 238 241 244
b 35 2 3 8 10 11 12 13 14 15 16 18 19 20 21 22 24 25 28 29 33 38 39 40 41 42 43 44 46 48 50 51 54 56 58 60 61 64 66 68 71 73 75 76 77 78 79 80 81 86 87 90 91 93 94 95 96 97 98 99 100 103 107 109 110 113 116 118 121 125 126 128 130 131 133 135 137 138 139 140 141 147 154 155 157 162 163 164 165 166 167 168 172 174 176 180 181 183 189 190 191 193 194 195 196 197 201 202 204 205 206 213 217 218 219 222 225 228 229 230 231 234 236 237 238 241 244
b 36 2 3 8 10 11 12 13 14 15 16 18 19 20 21 22 24 25 28 29 33 38 39 40 41 42 43 44 46 48 50 51 54 56 58 60 61 64 66 68 71 73 75 76 77 78 79 80 81 86 87 90 91 93 94 95 96 97 98 99 100 103 107 109 110 113 116 118 121 125 126 128 130 131 133 135 137 138 139 140 141 147 154 155 157 162 163 164 165 166 167 168 172 174 180 181 183 189 190 191 193 194 195 196 197 201 202 204 205 206 212 213 217 218 219 222 225 228 229 230 231 234 236 237 238 241 244
b 37 2 3 6 8 10 11 12 13 14 15 16 17 18 19 20 21 22 24 25 28 29 33 38 39 40 41 42 43 44 46 48 50 51 54 56 58 60 61 64 66 68 71 73 75 76 77 78 79 80 81 86 87 90 91 93 94 95 96 97 98 99 100 103 107 109 110 113 116 118 121 125 126 128 130 131 133 135 137 138 139 140 141 147 154 155 157 162 163 164 165 166 167 168 172 174 180 181 183 189 190 191 193 194 195 196 197 201 202 204 205 212 213 217 218 219 222 225 228 229 230 231 234 236 237 238 241 244
b 38 2 3 6 8 10 11 12 13 14 15 16 17 18 19 20 21 22 24 25 28 29 33 38 39 40 41 42 43 44 46 48 50 51 54 56 58 60 61 64 66 68 71 73 75 76 77 78 79 80 81 86 87 90 91 93 94 95 96 97 98 99 100 103 104 107 109 110 113 116 118 121 125 126 128 130 131 135 137 138 139 140 141 147 152 154 155 157 158 162 163 164 165 166 167 168 172 174 180 181 183 189 190 191 193 194 195 196 197 201 202 204 205 212 213 217 218 219 222 225 228 229 230 231 234 236 237 238 241 244
b 39 2 3 6 8 10 11 12 13 14 15 16 17 18 19 20 21 22 24 25 27 28 29 33 38 39 40 41 42 43 44 46 48 50 51 54 56 58 60 61 64 66 68 71 73 75 76 77 78 79 80 81 86 87 90 91 93 94 95 96 97 98 99 100 103 104 107 109 110 113 116 118 121 125 126 128 130 131 135 137 138 139 140 141 147 152 154 155 157 158 162 163 164 165 166 167 168 172 174 180 181 183 189 190 191 193 194 195 196 197 201 202 204 205 212 213 217 218 219 222 225 228 229 230 231 234 236 237 238 241 244
b 40 2 6 13 15 17 24 27 33 37 42 51 60 61 64 66 91 121 128 135 138 158 174 189 193 194 212 213 217 219 222 228 236 244
b 41 15 17 24 27 33 37 51 60 61 91 112 135 138 158 189 193 194 212 213 217 219 236
b 42 17 27 31 37 60 112 135 138 213 217 219 236
b 43 49 66 97 104 131 152 158 164 174 191 213 229
b 44 3 19 25 36 40 66 87 90 116 130 133 167 176 194 195 205 206 218 222 230
b 45 36 40 84 116 133 176 195 222
b 46 8 10 12 13 14 18 19 24 25 28 33 39 51 54 61 65 71 75 78 80 103 107 110 125 128 130 131 133 137 139 155 162 164 166 168 174 176 180 181 189 193 195 197 201 213 228 234 236
b 47 54 59 65 176 180 181 195 197 228
b 48 10 12 18 28 61 65 75 133 137 200 201 213
b 49 8 10 13 14 19 24 25 28 33 39 51 54 65 78 80 103 107 110 117 125 128 130 139 162 164 166 168 174 189 193 228 234 236
b 50 8 13 19 25 92 117 125 128 164 168 174 234
b 51 10 24 25 33 39 51 65 78 103 107 110 117 139 162 168 174 189 193 211 228
b 52 10 24 39 103 107 110 139 162 174 211 235
b 53 4 25 33 39 51 117 168 211
b 54 19 21 41 43 71 137 145 228
b 55 68 80 87 138 197 218 224 230
b 56 34 50 99 130 139 164 197 201 230
b 57 24 47 62 86 87 90 126 180 215 219 238 246
b 58 2 3 6 8 10 11 12 13 14 15 18 19 20 21 22 24 25 27 28 38 39 40 42 43 44 46 48 51 54 56 58 60 62 64 68 71 73 75 76 77 78 80 81 83 86 87 90 91 93 94 95 96 97 98 99 103 104 107 109 110 111 113 114 116 118 121 126 128 130 131 135 137 139 141 143 147 152 154 155 157 158 162 163 164 165 166 167 172 174 175 180 181 185 186 189 190 191 193 194 195 196 197 198 201 204 205 212 215 216 217 218 219 222 225 226 229 230 231 234 236 237 238 240 241 244 246
b 59 2 3 6 8 10 11 12 13 14 15 16 18 19 20 21 22 24 25 27 28 38 39 40 42 43 44 46 48 51 54 56 58 60 64 66 68 71 73 75 76 77 78 80 81 83 86 87 90 91 93 94 95 96 97 98 99 103 104 107 109 110 111 113 114 116 118 121 126 128 130 131 135 137 139 140 141 143 147 152 154 155 157 158 162 163 164 165 166 167 172 174 175 180 181 185 186 189 190 191 193 194 195 196 197 198 201 204 205 212 215 216 217 218 219 222 225 226 229 230 231 234 236 237 238 240 241 244 246
b 60 2 3 6 8 10 11 12 13 14 15 16 18 19 20 21 22 24 25 27 28 33 38 39 40 42 43 44 46 48 51 54 56 58 60 64 66 68 71 73 75 76 77 78 80 81 83 86 87 90 91 93 94 95 96 97 98 99 103 104 107 109 110 113 114 116 118 121 126 128 130 131 135 137 139 140 141 143 147 152 154 155 157 158 162 163 164 165 166 167 172 174 175 180 181 185 186 189 190 191 193 194 195 196 197 198 201 204 205 212 215 216 217 218 219 222 225 226 229 230 231 234 236 237 238 240 241 244 246
b 61 2 3 6 8 10 11 12 13 14 15 16 18 19 20 21 22 24 25 27 28 33 38 39 40 42 43 44 46 48 51 54 56 58 60 64 66 68 71 73 75 76 77 78 80 81 83 86 87 90 91 93 94 95 96 97 98 99 103 104 107 109 110 113 116 118 121 126 128 130 131 135 137 139 140 141 143 147 152 154 155 157 158 159 162 163 164 165 166 167 172 174 175 180 181 183 185 186 189 190 191 192 193 194 195 196 197 198 201 204 205 212 215 216 217 218 219 222 225 226 229 230 231 234 236 237 238 240 241 244 246
b 62 2 3 6 8 10 11 12 13 14 15 16 18 19 20 21 22 24 25 27 28 33 38 39 40 42 43 44 46 48 51 54 56 58 60 64 66 68 71 73 75 76 77 78 80 81 83 86 87 90 91 93 94 95 96 97 98 99 103 104 107 109 110 113 116 118 121 126 128 130 131 135 137 139 140 141 143 147 152 154 155 157 158 162 163 164 165 166 167 172 174 175 180 181 183 184 185 186 189 190 191 192 193 194 195 196 197 198 201 204 205 212 215 216 217 218 219 222 225 226 229 230 231 234 236 237 238 240 241 244 246
b 63 2 3 6 8 10 11 12 13 14 15 16 18 19 20 21 22 24 25 27 28 33 38 39 40 42 43 44 46 48 51 54 56 58 60 64 66 68 71 73 75 76 77 78 80 81 83 86 87 90 91 93 94 95 96 97 98 99 100 103 104 107 109 110 113 116 118 121 126 128 130 131 135 137 139 140 141 143 147 152 154 155 157 158 162 163 164 165 166 167 172 174 175 180 181 183 185 186 189 190 191 192 193 194 195 196 197 198 201 204 205 212 215 216 217 218 219 222 225 226 229 230 231 234 236 237 238 240 241 244 246
b 64 2 3 6 8 10 11 12 13 14 15 16 18 19 20 21 22 24 25 27 28 33 38 39 40 42 43 44 46 48 51 54 56 58 60 64 66 68 71 73 75 76 77 78 80 81 83 86 87 90 91 93 94 95 96 97 98 99 100 103 104 107 109 110 113 116 118 121 126 128 130 131 135 137 139 140 141 143 147 152 154 155 157 158 162 163 164 165 166 167 172 174 175 180 181 183 186 189 190 191 192 193 194 195 196 197 198 201 204 205 209 212 214 215 216 217 218 219 222 225 226 229 230 231 234 236 237 238 240 241 244 246
b 65 2 3 6 8 10 11 12 13 14 15 16 18 19 20 21 22 24 25 27 28 33 38 39 40 42 43 44 46 48 51 54 56 58 60 64 66 68 71 73 75 76 77 78 80 81 83 86 87 90 91 93 94 95 96 97 98 99 100 103 104 107 109 110 113 116 118 121 126 128 130 131 135 137 139 140 141 143 147 152 154 155 157 158 162 163 164 165 166 167 172 174 175 180 181 183 186 187 189 190 191 192 193 194 195 196 197 198 201 202 204 205 209 212 215 217 218 219 222 225 226 229 230 231 234 236 237 238 240 241 244 246
b 66 2 3 6 8 10 11 12 13 14 15 16 17 18 19 20 21 22 24 25 27 28 33 38 39 40 42 43 44 46 48 51 54 56 58 60 64 66 68 71 73 75 76 77 78 80 81 83 86 87 90 91 93 94 95 96 97 98 99 100 103 104 107 109 110 113 116 118 121 126 128 130 131 135 137 139 140 141 143 147 152 154 155 157 158 162 163 164 165 166 167 172 174 175 180 181 183 186 189 190 191 192 193 194 195 196 197 198 201 202 204 205 209 212 215 217 218 219 222 225 226 229 230 231 234 236 237 238 240 241 244 246
b 67 2 3 6 8 10 11 12 13 14 15 16 17 18 19 20 21 22 24 25 27 28 33 38 39 40 42 43 44 46 48 51 54 56 58 60 64 66 68 71 73 75 76 77 78 80 81 83 86 87 90 91 93 94 95 96 97 98 99 100 103 104 107 109 110 113 116 118 121 126 128 130 131 135 137 139 140 141 143 147 152 153 154 155 157 158 162 163 164 165 166 167 172 174 175 180 181 183 186 189 190 191 192 193 194 195 196 197 198 201 202 204 205 209 212 215 217 218 219 222 225 226 229 230 231 234 236 237 238 240 241 244
b 68 2 3 6 8 10 11 12 13 14 15 16 17 18 19 20 21 22 24 25 27 28 33 38 39 40 42 43 44 46 48 51 54 56 58 60 61 64 66 68 71 73 75 76 77 78 80 81 83 86 87 90 91 93 94 95 96 97 98 99 100 103 104 107 109 110 113 116 118 121 126 128 130 131 135 137 139 140 141 143 147 152 153 154 155 157 158 162 163 164 165 166 167 172 174 175 180 181 183 186 189 190 191 192 193 194 195 196 197 198 201 202 204 205 209 212 217 218 219 222 225 226 229 230 231 234 236 237 238 240 241 244
b 69 2 3 6 8 10 11 12 13 14 15 16 17 18 19 20 21 22 24 25 27 28 33 38 39 40 42 43 44 46 48 51 54 56 58 60 61 64 66 68 71 73 75 76 77 78 80 81 83 86 87 90 91 93 94 95 96 97 98 99 100 103 104 107 109 110 113 116 118 121 126 128 130 131 135 137 139 140 141 143 147 152 154 155 157 158 162 163 164 165 166 167 168 172 174 175 180 181 183 186 189 190 191 192 193 194 195 196 197 198 201 202 204 205 209 212 217 218 219 222 225 226 229 230 231 234 236 237 238 240 241 244
b 70 2 3 6 8 10 11 12 13 14 15 16 17 18 19 20 21 22 24 25 27 28 33 38 39 40 41 42 43 44 46 48 51 54 56 58 60 61 64 66 68 71 73 75 76 77 78 80 81 86 87 90 91 93 94 95 96 97 98 99 100 103 104 107 109 110 113 116 118 121 126 128 130 131 135 137 139 140 141 143 147 152 154 155 157 158 162 163 164 165 166 167 168 172 174 175 180 181 183 186 189 190 191 192 193 194 195 196 197 198 201 202 204 205 209 212 217 218 219 222 225 226 229 230 231 234 236 237 238 240 241 244
b 71 2 3 6 8 10 11 12 13 14 15 16 17 18 19 20 21 22 24 25 27 28 33 38 39 40 41 42 43 44 46 48 51 54 56 58 60 61 64 66 68 71 73 75 76 77 78 80 81 86 87 90 91 93 94 95 96 97 98 99 100 103 104 107 109 110 113 116 118 121 125 126 128 130 131 135 137 139 140 141 147 152 154 155 157 158 162 163 164 165 166 167 168 172 174 175 180 181 183 186 189 190 191 192 193 194 195 196 197 198 201 202 204 205 209 212 217 218 219 222 225 226 229 230 231 234 236 237 238 240 241 244
b 72 2 3 6 8 10 11 12 13 14 15 16 17 18 19 20 21 22 24 25 27 28 33 38 39 40 41 42 43 44 46 48 51 54 56 58 60 61 64 66 68 71 73 75 76 77 78 80 81 86 87 90 91 93 94 95 96 97 98 99 100 103 104 107 109 110 113 116 118 121 125 126 128 130 131 135 137 139 140 141 147 152 154 155 157 158 162 163 164 165 166 167 168 172 174 175 179 180 181 183 186 189 190 191 192 193 194 195 196 197 198 201 202 204 205 212 217 218 219 222 225 226 229 230 231 234 236 237 238 240 241 244
b 73 2 3 6 8 10 11 12 13 14 15 16 17 18 19 20 21 22 24 25 27 28 33 38 39 40 41 42 43 44 46 48 51 54 56 58 60 61 64 66 68 71 73 75 76 77 78 79 80 81 86 87 90 91 93 94 95 96 97 98 99 100 103 104 107 109 110 113 116 118 121 125 126 128 130 131 135 137 139 140 141 147 152 154 155 157 158 162 163 164 165 166 167 168 172 174 175 180 181 183 186 189 190 191 192 193 194 195 196 197 198 201 202 204 205 212 217 218 219 222 225 226 229 230 231 234 236 237 238 240 241 244
b 74 2 3 6 8 10 11 12 13 14 15 16 17 18 19 20 21 22 24 25 27 28 29 33 38 39 40 41 42 43 44 46 48 51 54 56 58 60 61 64 66 68 71 73 75 76 77 78 79 80 81 86 87 90 91 93 94 95 96 97 98 99 100 103 104 107 109 110 113 116 118 121 125 126 128 130 131 135 137 139 140 141 147 152 154 155 157 158 162 163 164 165 166 167 168 172 174 175 180 181 183 186 189 190 191 193 194 195 196 197 198 201 202 204 205 212 217 218 219 222 225 226 229 230 231 234 236 237 238 240 241 244
b 75 2 3 6 8 10 11 12 13 14 15 16 17 18 19 20 21 22 24 25 27 28 29 33 38 39 40 41 42 43 44 46 48 51 54 56 58 60 61 64 66 68 71 73 75 76 77 78 79 80 81 86 87 90 91 93 94 95 96 97 98 99 100 103 104 107 109 110 113 116 118 121 125 126 128 130 131 135 137 139 140 141 147 152 154 155 157 158 162 163 164 165 166 167 168 172 174 175 180 181 183 186 189 190 191 193 194 195 196 197 198 201 202 204 205 212 217 218 219 222 225 228 229 230 231 234 236 237 238 240 241 244
b 76 2 3 6 8 10 11 12 13 14 15 16 17 18 19 20 21 22 24 25 27 28 29 33 38 39 40 41 42 43 44 46 48 50 51 54 56 58 60 61 64 66 68 71 73 75 76 77 78 79 80 81 86 87 90 91 93 94 95 96 97 98 99 100 103 104 107 109 110 113 116 118 121 125 126 128 130 131 135 137 138 139 140 141 147 152 154 155 157 158 162 163 164 165 166 167 168 172 174 180 181 183 186 189 190 191 193 194 195 196 197 201 202 204 205 212 217 218 219 222 225 228 229 230 231 234 236 237 238 240 241 244
b 77 2 27 68 99 194 215 236 245
b 78 6 71 72 87 159 192 226
b 79 44 46 70 71 91 163 195 226
b 80 3 10 11 14 27 28 29 41 43 51 54 56 66 68 71 75 79 80 91 94 96 98 99 109 110 116 118 126 131 139 141 152 167 168 172 175 178 181 191 193 197 198 205 218 219 222 225 228 236 244
b 81 10 14 66 96 105 109 178 205 218
b 82 23 66 71 91 116 131 168 175 178 222
b 83 3 7 11 14 27 29 41 43 51 71 80 94 98 99 110 118 126 139 152 167 172 175 178 181 191 197 198 225 228 236
b 84 7 14 29 80 110 139 150 152 181 191 225 228
b 85 7 27 29 41 43 71 94 99 118 167 172 178 197 198 232
b 86 2 3 6 8 10 11 12 13 14 15 18 19 20 21 22 24 25 27 28 38 39 40 42 43 44 46 48 51 54 56 58 60 62 64 68 71 73 75 76 77 78 80 81 83 86 87 90 91 93 94 95 96 97 98 99 103 104 107 109 110 113 114 116 118 121 126 128 130 131 135 137 139 141 143 147 152 154 155 157 158 162 163 164 165 167 172 174 175 181 186 189 190 191 193 194 195 196 197 198 201 204 205 212 216 217 218 219 222 225 227 229 230 231 234 236 237 238 241 244 246
b 87 2 3 6 10 15 18 22 24 28 38 39 43 44 46 56 60 62 64 68 78 83 90 94 97 110 113 118 128 130 147 157 158 162 165 175 186 189 191 193 196 197 205 210 216 218 227 234 237 238
b 88 6 62 83 123 128 193 210
b 89 26 39 60 68 78 97 162 165 210 216 227 238
b 90 2 3 6 10 15 18 22 24 28 38 44 46 56 64 94 113 118 124 128 147 157 158 175 186 189 191 196 197 210 218 237
b 91 2 18 28 46 64 124 191 220
b 92 2 3 6 10 15 18 22 28 45 94 113 118 124 128 157 175 186 189 191 196 197 210
b 93 3 15 28 45 53 94 124 128 157 191 196 197
b 94 2 3 6 8 10 11 12 13 14 15 18 19 20 21 22 24 25 27 28 38 39 40 42 43 44 46 48 51 54 56 58 60 62 68 71 73 75 76 77 80 81 86 87 90 91 93 95 96 97 98 99 103 104 107 109 110 113 114 116 118 121 126 128 131 135 137 139 141 143 147 152 154 155 157 158 160 162 163 164 165 167 172 174 175 181 186 189 190 191 193 194 195 197 198 201 204 205 212 216 217 218 219 222 225 227 229 230 231 234 236 237 241 244 246
b 95 3 6 15 20 73 77 80 86 97 110 113 126 131 143 152 155 158 160 167 172 174 198 201 204 205 227 230 233 246
b 96 3 6 15 73 80 97 110 126 131 143 155 158 167 203 204 230 233
b 97 3 15 57 80 97 131 158 203 230
b 98 1 2 3 8 10 11 12 13 14 15 18 19 21 22 24 25 27 28 38 39 40 42 43 44 46 48 51 54 56 58 60 62 68 71 73 75 76 80 81 86 87 90 91 93 95 96 97 98 99 103 104 107 109 113 114 116 118 121 128 131 135 137 139 141 143 147 152 154 157 158 160 162 163 164 165 167 172 175 181 186 189 190 191 193 194 195 197 204 205 212 216 217 218 219 222 225 227 229 231 234 236 237 244
b 99 1 2 3 5 8 10 11 12 13 21 22 27 28 38 39 42 46 48 51 54 56 58 60 68 75 80 81 90 95 96 97 98 99 103 104 107 109 113 114 116 121 135 141 143 147 152 154 157 158 160 162 163 164 165 167 172 175 181 191 193 194 197 204 212 216 217 219 225 227 229 231 234
b 100 1 5 8 11 28 48 56 81 95 107 109 114 121 143 152 154 156 160 165 167 172 194 216 217 225
b 101 8 11 28 56 95 109 114 121 156 167 182 194
b 102 1 95 107 156 160 161 165 172 216
b 103 2 3 5 10 11 12 13 21 22 28 32 38 39 42 46 48 51 54 58 60 68 80 90 96 97 99 103 104 113 114 116 135 141 147 157 158 162 163 164 172 175 181 191 197 204 212 219 227 229 234
b 104 2 3 21 22 32 38 54 58 82 96 99 162 164 191 204 227 229 234
b 105 21 38 54 58 82 164 191 208 227 229
b 106 5 10 12 32 39 42 51 74 90 97 103 135 172 197 219 234
b 107 5 12 32 51 74 90 135 172 219 243
b 108 5 11 12 13 28 32 60 68 80 104 113 114 116 141 144 157 158 163 172 181
b 109 11 12 28 114 132 141 144 158 172
b 110 1 3 11 13 14 18 19 21 24 25 28 40 43 44 46 71 73 86 87 90 91 95 97 103 113 114 118 128 131 135 137 139 141 147 148 160 162 163 164 165 167 186 189 190 191 195 197 204 205 212 216 217 218 219 231 236 244
b 111 19 21 46 71 97 103 106 113 147 148 160 162 165 186 189 195 216 218 244
b 112 69 106 147 162 165 186 189 216 244
b 113 114 135 141 148 188 216 217 219 236
b 114 1 3 11 18 21 24 25 40 44 73 90 91 95 118 128 137 141 148 162 164 190 191 205 212 221
b 115 3 21 24 73 91 95 127 128 141 148 191 205 221
b 116 16 17 20 50 79 80 103 138 170 186 201 212 229 230 240
b 117 3 8 9 14 17 77 83 135 143 154 158 168 172 181 202 204 240
b 118 9 17 77 89 135 143 158 168 202
b 119 16 44 97 131 134 141 209 214
b 120 15 33 61 63 73 76 83 98 121 128 153 180 190 191 209
b 121 8 12 76 83 93 100 153 154 215 239
1 2
2 20
2 3
3 4
4 5
4 6
4 12
6 7
6 9
7 8
9 11
9 10
12 15
12 13
12 17
13 14
15 16
17 18
17 19
20 30
20 21
21 27
21 22
22 23
22 24
22 25
25 26
27 28
28 29
30 31
31 56
31 32
32 55
32 33
33 54
33 34
34 46
34 35
35 44
35 36
36 37
37 38
38 43
38 39
39 76
39 40
40 41
41 42
44 45
46 47
46 48
46 49
49 50
49 51
51 53
51 52
57 58
58 86
58 79
58 77
58 59
59 60
60 61
61 78
61 62
62 63
63 64
64 119
64 65
65 66
66 67
67 121
67 68
68 120
68 69
69 117
69 70
70 71
71 72
72 73
73 74
74 75
75 80
75 76
76 116
80 82
80 83
80 81
83 84
83 85
86 94
86 87
87 88
87 89
87 90
90 91
90 92
92 93
94 95
94 98
95 96
96 97
98 110
98 99
99 100
99 103
100 102
100 101
103 106
103 104
103 108
104 105
106 107
108 109
110 113
110 111
110 114
111 112
114 115
117 118

